NAME : amz2246.97344_97344.tour
COMMENT : Cost = 97344_97344
COMMENT : Found by LKH-AMZ [Keld Helsgaun] Sun May 11 13:47:58 2025
COMMENT : TW viol.: 0 #: 0
TYPE : TOUR
DIMENSION : 132
TOUR_SECTION
123
18
28
13
5
59
2
43
52
29
88
110
99
6
58
74
113
80
121
76
57
65
15
21
122
82
107
62
71
41
30
102
124
9
85
129
38
12
79
109
84
17
36
10
104
118
108
66
130
117
98
4
48
91
39
34
54
61
47
105
27
115
44
20
92
101
87
35
19
55
7
116
132
103
56
23
70
114
128
89
83
22
94
72
78
3
40
126
111
8
24
100
45
51
33
81
42
112
14
49
64
73
31
25
53
60
125
127
75
63
131
77
96
32
86
50
69
119
93
97
1
37
106
68
90
95
67
46
120
16
26
11
-1
EOF
